predicate globalCardinalityChoco(array [int] of var int: x,array [int] of int: cover,array [int] of var int: counts,bool: closed);
predicate alldifferentChoco(array [int] of var int: x);
predicate atleastChoco(int: n,array [int] of var int: x,int: v);
predicate atmostChoco(int: n,array [int] of var int: x,int: v);
array [1..14] of int: X_INTRODUCED_71_ = [2,1,1,1,1,1,1,1,1,1,1,1,1,1];
array [1..14] of int: X_INTRODUCED_72_ = [0,1,2,3,4,5,6,7,8,9,10,11,12,13];
array [1..2] of int: X_INTRODUCED_88_ = [1,1];
array [1..196] of int: X_INTRODUCED_256_ = [0,0,0,0,0,0,0,0,0,0,0,0,0,0,0,0,0,0,0,128,128,128,117,117,197,197,178,178,0,0,0,0,0,128,128,128,117,117,197,197,178,178,0,0,0,0,0,128,128,128,117,117,197,197,178,178,0,0,0,0,0,128,128,128,117,117,197,197,178,178,0,125,125,125,125,0,0,0,102,102,146,146,175,175,0,125,125,125,125,0,0,0,102,102,146,146,175,175,0,125,125,125,125,0,0,0,102,102,146,146,175,175,0,179,179,179,179,191,191,191,0,0,190,190,161,161,0,179,179,179,179,191,191,191,0,0,190,190,161,161,0,156,156,156,156,139,139,139,119,119,0,0,189,189,0,156,156,156,156,139,139,139,119,119,0,0,189,189,0,109,109,109,109,121,121,121,111,111,187,187,0,0,0,109,109,109,109,121,121,121,111,111,187,187,0,0];
array [1..2] of int: X_INTRODUCED_285_ = [1,-1];
array [1..28] of int: X_INTRODUCED_292_ = [1,-1,-1,-1,-1,-1,-1,-1,-1,-1,-1,-1,-1,-1,-1,-10,-10,-10,-10,-10,-10,-10,-10,-10,-10,-10,-10,-10];
var 0..13: X_INTRODUCED_0_;
var 0..13: X_INTRODUCED_1_;
var 0..13: X_INTRODUCED_2_;
var 0..13: X_INTRODUCED_3_;
var 0..13: X_INTRODUCED_4_;
var 0..13: X_INTRODUCED_5_;
var {0,2,3,4,5,6,7,8,9,10,11,12,13}: X_INTRODUCED_6_;
var {0,2,3,4,5,6,7,9,10,11,12,13}: X_INTRODUCED_7_;
var {0,2,3,4,5,6,7,9,10,11,12,13}: X_INTRODUCED_8_;
var {0,3,4,5,6,7,9,10,11,13}: X_INTRODUCED_9_;
var {0,3,4,6,7,9,10,11,13}: X_INTRODUCED_10_;
var {0,4,6,7,9,11,13}: X_INTRODUCED_11_;
var {0,4,6,7,9,11,13}: X_INTRODUCED_12_;
var {0,4,7,9,11,13}: X_INTRODUCED_13_;
var {0,4,7,13}: X_INTRODUCED_14_;
var 1..15: X_INTRODUCED_15_;
var 1..15: X_INTRODUCED_16_;
var 1..15: X_INTRODUCED_17_;
var 1..15: X_INTRODUCED_18_;
var 1..15: X_INTRODUCED_19_;
var 1..15: X_INTRODUCED_20_;
var 1..15: X_INTRODUCED_21_;
var 1..15: X_INTRODUCED_22_;
var 1..15: X_INTRODUCED_23_;
var 1..15: X_INTRODUCED_24_;
var 1..15: X_INTRODUCED_25_;
var 1..15: X_INTRODUCED_26_;
var 1..15: X_INTRODUCED_27_;
var 0..5: X_INTRODUCED_28_:: is_defined_var;
var 0..8: X_INTRODUCED_29_:: is_defined_var;
var 0..10: X_INTRODUCED_30_:: is_defined_var;
var 0..14: X_INTRODUCED_31_:: is_defined_var;
var 0..9: X_INTRODUCED_32_:: is_defined_var;
var 0..12: X_INTRODUCED_33_:: is_defined_var;
var 0..14: X_INTRODUCED_34_:: is_defined_var;
var 0..6: X_INTRODUCED_35_:: is_defined_var;
var 0..13: X_INTRODUCED_36_:: is_defined_var;
var 0..10: X_INTRODUCED_37_:: is_defined_var;
var 0..13: X_INTRODUCED_38_:: is_defined_var;
var 0..8: X_INTRODUCED_39_:: is_defined_var;
var 0..14: X_INTRODUCED_40_:: is_defined_var;
var 0..13: X_INTRODUCED_56_;
var 0..13: X_INTRODUCED_57_;
var 0..13: X_INTRODUCED_58_;
var 0..13: X_INTRODUCED_59_;
var 0..13: X_INTRODUCED_60_;
var 0..13: X_INTRODUCED_61_;
var 0..13: X_INTRODUCED_62_;
var 0..13: X_INTRODUCED_63_;
var 0..13: X_INTRODUCED_64_;
var 0..13: X_INTRODUCED_65_;
var 0..13: X_INTRODUCED_66_;
var 0..13: X_INTRODUCED_67_;
var 0..13: X_INTRODUCED_68_;
var 0..13: X_INTRODUCED_69_;
var 0..4118: objective:: output_var:: is_defined_var;
var bool: X_INTRODUCED_101_ ::var_is_introduced :: is_defined_var;
var bool: X_INTRODUCED_102_ ::var_is_introduced :: is_defined_var;
var bool: X_INTRODUCED_103_ ::var_is_introduced :: is_defined_var;
var bool: X_INTRODUCED_112_ ::var_is_introduced :: is_defined_var;
var bool: X_INTRODUCED_113_ ::var_is_introduced :: is_defined_var;
var bool: X_INTRODUCED_114_ ::var_is_introduced :: is_defined_var;
var bool: X_INTRODUCED_123_ ::var_is_introduced :: is_defined_var;
var bool: X_INTRODUCED_124_ ::var_is_introduced :: is_defined_var;
var bool: X_INTRODUCED_125_ ::var_is_introduced :: is_defined_var;
var bool: X_INTRODUCED_134_ ::var_is_introduced :: is_defined_var;
var bool: X_INTRODUCED_135_ ::var_is_introduced :: is_defined_var;
var bool: X_INTRODUCED_136_ ::var_is_introduced :: is_defined_var;
var bool: X_INTRODUCED_145_ ::var_is_introduced :: is_defined_var;
var bool: X_INTRODUCED_146_ ::var_is_introduced :: is_defined_var;
var bool: X_INTRODUCED_147_ ::var_is_introduced :: is_defined_var;
var bool: X_INTRODUCED_156_ ::var_is_introduced :: is_defined_var;
var bool: X_INTRODUCED_157_ ::var_is_introduced :: is_defined_var;
var bool: X_INTRODUCED_158_ ::var_is_introduced :: is_defined_var;
var bool: X_INTRODUCED_167_ ::var_is_introduced :: is_defined_var;
var bool: X_INTRODUCED_168_ ::var_is_introduced :: is_defined_var;
var bool: X_INTRODUCED_169_ ::var_is_introduced :: is_defined_var;
var bool: X_INTRODUCED_178_ ::var_is_introduced :: is_defined_var;
var bool: X_INTRODUCED_179_ ::var_is_introduced :: is_defined_var;
var bool: X_INTRODUCED_180_ ::var_is_introduced :: is_defined_var;
var bool: X_INTRODUCED_189_ ::var_is_introduced :: is_defined_var;
var bool: X_INTRODUCED_190_ ::var_is_introduced :: is_defined_var;
var bool: X_INTRODUCED_191_ ::var_is_introduced :: is_defined_var;
var bool: X_INTRODUCED_200_ ::var_is_introduced :: is_defined_var;
var bool: X_INTRODUCED_201_ ::var_is_introduced :: is_defined_var;
var bool: X_INTRODUCED_202_ ::var_is_introduced :: is_defined_var;
var bool: X_INTRODUCED_211_ ::var_is_introduced :: is_defined_var;
var bool: X_INTRODUCED_212_ ::var_is_introduced :: is_defined_var;
var bool: X_INTRODUCED_213_ ::var_is_introduced :: is_defined_var;
var bool: X_INTRODUCED_222_ ::var_is_introduced :: is_defined_var;
var bool: X_INTRODUCED_223_ ::var_is_introduced :: is_defined_var;
var bool: X_INTRODUCED_224_ ::var_is_introduced :: is_defined_var;
var bool: X_INTRODUCED_233_ ::var_is_introduced :: is_defined_var;
var bool: X_INTRODUCED_234_ ::var_is_introduced :: is_defined_var;
var bool: X_INTRODUCED_235_ ::var_is_introduced :: is_defined_var;
var bool: X_INTRODUCED_244_ ::var_is_introduced :: is_defined_var;
var bool: X_INTRODUCED_245_ ::var_is_introduced :: is_defined_var;
var bool: X_INTRODUCED_246_ ::var_is_introduced :: is_defined_var;
var 0..197: X_INTRODUCED_255_ ::var_is_introduced :: is_defined_var;
var 1..196: X_INTRODUCED_258_ ::var_is_introduced :: is_defined_var;
var 0..197: X_INTRODUCED_259_ ::var_is_introduced :: is_defined_var;
var 1..196: X_INTRODUCED_260_ ::var_is_introduced :: is_defined_var;
var 0..197: X_INTRODUCED_261_ ::var_is_introduced :: is_defined_var;
var 1..196: X_INTRODUCED_262_ ::var_is_introduced :: is_defined_var;
var 0..197: X_INTRODUCED_263_ ::var_is_introduced :: is_defined_var;
var 1..196: X_INTRODUCED_264_ ::var_is_introduced :: is_defined_var;
var 0..197: X_INTRODUCED_265_ ::var_is_introduced :: is_defined_var;
var 1..196: X_INTRODUCED_266_ ::var_is_introduced :: is_defined_var;
var 0..197: X_INTRODUCED_267_ ::var_is_introduced :: is_defined_var;
var 1..196: X_INTRODUCED_268_ ::var_is_introduced :: is_defined_var;
var 0..197: X_INTRODUCED_269_ ::var_is_introduced :: is_defined_var;
var 1..196: X_INTRODUCED_270_ ::var_is_introduced :: is_defined_var;
var 0..197: X_INTRODUCED_271_ ::var_is_introduced :: is_defined_var;
var 1..196: X_INTRODUCED_272_ ::var_is_introduced :: is_defined_var;
var 0..197: X_INTRODUCED_273_ ::var_is_introduced :: is_defined_var;
var 1..196: X_INTRODUCED_274_ ::var_is_introduced :: is_defined_var;
var 0..197: X_INTRODUCED_275_ ::var_is_introduced :: is_defined_var;
var 1..196: X_INTRODUCED_276_ ::var_is_introduced :: is_defined_var;
var 0..197: X_INTRODUCED_277_ ::var_is_introduced :: is_defined_var;
var 1..196: X_INTRODUCED_278_ ::var_is_introduced :: is_defined_var;
var 0..197: X_INTRODUCED_279_ ::var_is_introduced :: is_defined_var;
var 1..196: X_INTRODUCED_280_ ::var_is_introduced :: is_defined_var;
var 0..197: X_INTRODUCED_281_ ::var_is_introduced :: is_defined_var;
var 1..196: X_INTRODUCED_282_ ::var_is_introduced :: is_defined_var;
var 0..197: X_INTRODUCED_283_ ::var_is_introduced :: is_defined_var;
var 1..196: X_INTRODUCED_284_ ::var_is_introduced :: is_defined_var;
array [1..15] of var int: production_by_order:: output_array([1..15]) = [X_INTRODUCED_0_,X_INTRODUCED_1_,X_INTRODUCED_2_,X_INTRODUCED_3_,X_INTRODUCED_4_,X_INTRODUCED_5_,X_INTRODUCED_6_,X_INTRODUCED_7_,X_INTRODUCED_8_,X_INTRODUCED_9_,X_INTRODUCED_10_,X_INTRODUCED_11_,X_INTRODUCED_12_,X_INTRODUCED_13_,X_INTRODUCED_14_];
array [1..13] of var int: production_period = [X_INTRODUCED_15_,X_INTRODUCED_16_,X_INTRODUCED_17_,X_INTRODUCED_18_,X_INTRODUCED_19_,X_INTRODUCED_20_,X_INTRODUCED_21_,X_INTRODUCED_22_,X_INTRODUCED_23_,X_INTRODUCED_24_,X_INTRODUCED_25_,X_INTRODUCED_26_,X_INTRODUCED_27_];
array [1..13] of var int: inventory_periods:: output_array([1..13]) = [X_INTRODUCED_28_,X_INTRODUCED_29_,X_INTRODUCED_30_,X_INTRODUCED_31_,X_INTRODUCED_32_,X_INTRODUCED_33_,X_INTRODUCED_34_,X_INTRODUCED_35_,X_INTRODUCED_36_,X_INTRODUCED_37_,X_INTRODUCED_38_,X_INTRODUCED_39_,X_INTRODUCED_40_];
array [1..15] of var int: production_order = [X_INTRODUCED_0_,X_INTRODUCED_56_,X_INTRODUCED_57_,X_INTRODUCED_58_,X_INTRODUCED_59_,X_INTRODUCED_60_,X_INTRODUCED_61_,X_INTRODUCED_62_,X_INTRODUCED_63_,X_INTRODUCED_64_,X_INTRODUCED_65_,X_INTRODUCED_66_,X_INTRODUCED_67_,X_INTRODUCED_68_,X_INTRODUCED_69_];
array [1..28] of var int: X_INTRODUCED_291_ ::var_is_introduced  = [objective,X_INTRODUCED_255_,X_INTRODUCED_259_,X_INTRODUCED_261_,X_INTRODUCED_263_,X_INTRODUCED_265_,X_INTRODUCED_267_,X_INTRODUCED_269_,X_INTRODUCED_271_,X_INTRODUCED_273_,X_INTRODUCED_275_,X_INTRODUCED_277_,X_INTRODUCED_279_,X_INTRODUCED_281_,X_INTRODUCED_283_,X_INTRODUCED_28_,X_INTRODUCED_29_,X_INTRODUCED_30_,X_INTRODUCED_31_,X_INTRODUCED_32_,X_INTRODUCED_33_,X_INTRODUCED_34_,X_INTRODUCED_35_,X_INTRODUCED_36_,X_INTRODUCED_37_,X_INTRODUCED_38_,X_INTRODUCED_39_,X_INTRODUCED_40_];
constraint globalCardinalityChoco(production_by_order,X_INTRODUCED_72_,X_INTRODUCED_71_,false);
constraint array_var_int_element(X_INTRODUCED_15_,production_by_order,1);
constraint array_var_int_element(X_INTRODUCED_16_,production_by_order,2);
constraint array_var_int_element(X_INTRODUCED_17_,production_by_order,3);
constraint array_var_int_element(X_INTRODUCED_18_,production_by_order,4);
constraint array_var_int_element(X_INTRODUCED_19_,production_by_order,5);
constraint array_var_int_element(X_INTRODUCED_20_,production_by_order,6);
constraint array_var_int_element(X_INTRODUCED_21_,production_by_order,7);
constraint array_var_int_element(X_INTRODUCED_22_,production_by_order,8);
constraint array_var_int_element(X_INTRODUCED_23_,production_by_order,9);
constraint array_var_int_element(X_INTRODUCED_24_,production_by_order,10);
constraint array_var_int_element(X_INTRODUCED_25_,production_by_order,11);
constraint array_var_int_element(X_INTRODUCED_26_,production_by_order,12);
constraint array_var_int_element(X_INTRODUCED_27_,production_by_order,13);
constraint alldifferentChoco(production_period);
constraint int_lin_eq(X_INTRODUCED_88_,[X_INTRODUCED_28_,X_INTRODUCED_15_],6):: defines_var(X_INTRODUCED_28_);
constraint int_lin_eq(X_INTRODUCED_88_,[X_INTRODUCED_29_,X_INTRODUCED_16_],9):: defines_var(X_INTRODUCED_29_);
constraint int_lin_eq(X_INTRODUCED_88_,[X_INTRODUCED_30_,X_INTRODUCED_17_],11):: defines_var(X_INTRODUCED_30_);
constraint int_lin_eq(X_INTRODUCED_88_,[X_INTRODUCED_31_,X_INTRODUCED_18_],15):: defines_var(X_INTRODUCED_31_);
constraint int_lin_eq(X_INTRODUCED_88_,[X_INTRODUCED_32_,X_INTRODUCED_19_],10):: defines_var(X_INTRODUCED_32_);
constraint int_lin_eq(X_INTRODUCED_88_,[X_INTRODUCED_33_,X_INTRODUCED_20_],13):: defines_var(X_INTRODUCED_33_);
constraint int_lin_eq(X_INTRODUCED_88_,[X_INTRODUCED_34_,X_INTRODUCED_21_],15):: defines_var(X_INTRODUCED_34_);
constraint int_lin_eq(X_INTRODUCED_88_,[X_INTRODUCED_35_,X_INTRODUCED_22_],7):: defines_var(X_INTRODUCED_35_);
constraint int_lin_eq(X_INTRODUCED_88_,[X_INTRODUCED_36_,X_INTRODUCED_23_],14):: defines_var(X_INTRODUCED_36_);
constraint int_lin_eq(X_INTRODUCED_88_,[X_INTRODUCED_37_,X_INTRODUCED_24_],11):: defines_var(X_INTRODUCED_37_);
constraint int_lin_eq(X_INTRODUCED_88_,[X_INTRODUCED_38_,X_INTRODUCED_25_],14):: defines_var(X_INTRODUCED_38_);
constraint int_lin_eq(X_INTRODUCED_88_,[X_INTRODUCED_39_,X_INTRODUCED_26_],9):: defines_var(X_INTRODUCED_39_);
constraint int_lin_eq(X_INTRODUCED_88_,[X_INTRODUCED_40_,X_INTRODUCED_27_],15):: defines_var(X_INTRODUCED_40_);
constraint bool_clause([X_INTRODUCED_102_],[X_INTRODUCED_101_]);
constraint array_bool_or([X_INTRODUCED_101_,X_INTRODUCED_103_],true);
constraint bool_clause([X_INTRODUCED_113_],[X_INTRODUCED_112_]);
constraint array_bool_or([X_INTRODUCED_112_,X_INTRODUCED_114_],true);
constraint bool_clause([X_INTRODUCED_124_],[X_INTRODUCED_123_]);
constraint array_bool_or([X_INTRODUCED_123_,X_INTRODUCED_125_],true);
constraint bool_clause([X_INTRODUCED_135_],[X_INTRODUCED_134_]);
constraint array_bool_or([X_INTRODUCED_134_,X_INTRODUCED_136_],true);
constraint bool_clause([X_INTRODUCED_146_],[X_INTRODUCED_145_]);
constraint array_bool_or([X_INTRODUCED_145_,X_INTRODUCED_147_],true);
constraint bool_clause([X_INTRODUCED_157_],[X_INTRODUCED_156_]);
constraint array_bool_or([X_INTRODUCED_156_,X_INTRODUCED_158_],true);
constraint bool_clause([X_INTRODUCED_168_],[X_INTRODUCED_167_]);
constraint array_bool_or([X_INTRODUCED_167_,X_INTRODUCED_169_],true);
constraint bool_clause([X_INTRODUCED_179_],[X_INTRODUCED_178_]);
constraint array_bool_or([X_INTRODUCED_178_,X_INTRODUCED_180_],true);
constraint bool_clause([X_INTRODUCED_190_],[X_INTRODUCED_189_]);
constraint array_bool_or([X_INTRODUCED_189_,X_INTRODUCED_191_],true);
constraint bool_clause([X_INTRODUCED_201_],[X_INTRODUCED_200_]);
constraint array_bool_or([X_INTRODUCED_200_,X_INTRODUCED_202_],true);
constraint bool_clause([X_INTRODUCED_212_],[X_INTRODUCED_211_]);
constraint array_bool_or([X_INTRODUCED_211_,X_INTRODUCED_213_],true);
constraint bool_clause([X_INTRODUCED_223_],[X_INTRODUCED_222_]);
constraint array_bool_or([X_INTRODUCED_222_,X_INTRODUCED_224_],true);
constraint bool_clause([X_INTRODUCED_234_],[X_INTRODUCED_233_]);
constraint array_bool_or([X_INTRODUCED_233_,X_INTRODUCED_235_],true);
constraint bool_clause([X_INTRODUCED_245_],[X_INTRODUCED_244_]);
constraint array_bool_or([X_INTRODUCED_244_,X_INTRODUCED_246_],true);
constraint atleastChoco(1,production_order,1);
constraint atmostChoco(3,production_order,1);
constraint atleastChoco(1,production_order,2);
constraint atmostChoco(3,production_order,2);
constraint atleastChoco(1,production_order,3);
constraint atmostChoco(3,production_order,3);
constraint atleastChoco(1,production_order,4);
constraint atmostChoco(3,production_order,4);
constraint atleastChoco(1,production_order,5);
constraint atmostChoco(3,production_order,5);
constraint atleastChoco(1,production_order,6);
constraint atmostChoco(3,production_order,6);
constraint atleastChoco(1,production_order,7);
constraint atmostChoco(3,production_order,7);
constraint atleastChoco(1,production_order,8);
constraint atmostChoco(3,production_order,8);
constraint atleastChoco(1,production_order,9);
constraint atmostChoco(3,production_order,9);
constraint atleastChoco(1,production_order,10);
constraint atmostChoco(3,production_order,10);
constraint atleastChoco(1,production_order,11);
constraint atmostChoco(3,production_order,11);
constraint atleastChoco(1,production_order,12);
constraint atmostChoco(3,production_order,12);
constraint atleastChoco(1,production_order,13);
constraint atmostChoco(3,production_order,13);
constraint array_int_element(X_INTRODUCED_258_,X_INTRODUCED_256_,X_INTRODUCED_255_);
constraint array_int_element(X_INTRODUCED_260_,X_INTRODUCED_256_,X_INTRODUCED_259_);
constraint array_int_element(X_INTRODUCED_262_,X_INTRODUCED_256_,X_INTRODUCED_261_);
constraint array_int_element(X_INTRODUCED_264_,X_INTRODUCED_256_,X_INTRODUCED_263_);
constraint array_int_element(X_INTRODUCED_266_,X_INTRODUCED_256_,X_INTRODUCED_265_);
constraint array_int_element(X_INTRODUCED_268_,X_INTRODUCED_256_,X_INTRODUCED_267_);
constraint array_int_element(X_INTRODUCED_270_,X_INTRODUCED_256_,X_INTRODUCED_269_);
constraint array_int_element(X_INTRODUCED_272_,X_INTRODUCED_256_,X_INTRODUCED_271_);
constraint array_int_element(X_INTRODUCED_274_,X_INTRODUCED_256_,X_INTRODUCED_273_);
constraint array_int_element(X_INTRODUCED_276_,X_INTRODUCED_256_,X_INTRODUCED_275_);
constraint array_int_element(X_INTRODUCED_278_,X_INTRODUCED_256_,X_INTRODUCED_277_);
constraint array_int_element(X_INTRODUCED_280_,X_INTRODUCED_256_,X_INTRODUCED_279_);
constraint array_int_element(X_INTRODUCED_282_,X_INTRODUCED_256_,X_INTRODUCED_281_);
constraint array_int_element(X_INTRODUCED_284_,X_INTRODUCED_256_,X_INTRODUCED_283_);
constraint int_lin_le(X_INTRODUCED_285_,[X_INTRODUCED_15_,X_INTRODUCED_16_],-1);
constraint int_lin_le(X_INTRODUCED_285_,[X_INTRODUCED_16_,X_INTRODUCED_17_],-1);
constraint int_lin_le(X_INTRODUCED_285_,[X_INTRODUCED_17_,X_INTRODUCED_18_],-1);
constraint int_lin_le(X_INTRODUCED_285_,[X_INTRODUCED_19_,X_INTRODUCED_20_],-1);
constraint int_lin_le(X_INTRODUCED_285_,[X_INTRODUCED_20_,X_INTRODUCED_21_],-1);
constraint int_lin_le(X_INTRODUCED_285_,[X_INTRODUCED_22_,X_INTRODUCED_23_],-1);
constraint int_lin_le(X_INTRODUCED_285_,[X_INTRODUCED_24_,X_INTRODUCED_25_],-1);
constraint int_lin_le(X_INTRODUCED_285_,[X_INTRODUCED_26_,X_INTRODUCED_27_],-1);
constraint int_lin_eq(X_INTRODUCED_292_,X_INTRODUCED_291_,0):: defines_var(objective);
constraint int_eq_reif(X_INTRODUCED_1_,0,X_INTRODUCED_101_):: defines_var(X_INTRODUCED_101_);
constraint int_eq_reif(X_INTRODUCED_56_,X_INTRODUCED_0_,X_INTRODUCED_102_):: defines_var(X_INTRODUCED_102_);
constraint int_eq_reif(X_INTRODUCED_56_,X_INTRODUCED_1_,X_INTRODUCED_103_):: defines_var(X_INTRODUCED_103_);
constraint int_eq_reif(X_INTRODUCED_2_,0,X_INTRODUCED_112_):: defines_var(X_INTRODUCED_112_);
constraint int_eq_reif(X_INTRODUCED_57_,X_INTRODUCED_56_,X_INTRODUCED_113_):: defines_var(X_INTRODUCED_113_);
constraint int_eq_reif(X_INTRODUCED_57_,X_INTRODUCED_2_,X_INTRODUCED_114_):: defines_var(X_INTRODUCED_114_);
constraint int_eq_reif(X_INTRODUCED_3_,0,X_INTRODUCED_123_):: defines_var(X_INTRODUCED_123_);
constraint int_eq_reif(X_INTRODUCED_58_,X_INTRODUCED_57_,X_INTRODUCED_124_):: defines_var(X_INTRODUCED_124_);
constraint int_eq_reif(X_INTRODUCED_58_,X_INTRODUCED_3_,X_INTRODUCED_125_):: defines_var(X_INTRODUCED_125_);
constraint int_eq_reif(X_INTRODUCED_4_,0,X_INTRODUCED_134_):: defines_var(X_INTRODUCED_134_);
constraint int_eq_reif(X_INTRODUCED_59_,X_INTRODUCED_58_,X_INTRODUCED_135_):: defines_var(X_INTRODUCED_135_);
constraint int_eq_reif(X_INTRODUCED_59_,X_INTRODUCED_4_,X_INTRODUCED_136_):: defines_var(X_INTRODUCED_136_);
constraint int_eq_reif(X_INTRODUCED_5_,0,X_INTRODUCED_145_):: defines_var(X_INTRODUCED_145_);
constraint int_eq_reif(X_INTRODUCED_60_,X_INTRODUCED_59_,X_INTRODUCED_146_):: defines_var(X_INTRODUCED_146_);
constraint int_eq_reif(X_INTRODUCED_60_,X_INTRODUCED_5_,X_INTRODUCED_147_):: defines_var(X_INTRODUCED_147_);
constraint int_eq_reif(X_INTRODUCED_6_,0,X_INTRODUCED_156_):: defines_var(X_INTRODUCED_156_);
constraint int_eq_reif(X_INTRODUCED_61_,X_INTRODUCED_60_,X_INTRODUCED_157_):: defines_var(X_INTRODUCED_157_);
constraint int_eq_reif(X_INTRODUCED_61_,X_INTRODUCED_6_,X_INTRODUCED_158_):: defines_var(X_INTRODUCED_158_);
constraint int_eq_reif(X_INTRODUCED_7_,0,X_INTRODUCED_167_):: defines_var(X_INTRODUCED_167_);
constraint int_eq_reif(X_INTRODUCED_62_,X_INTRODUCED_61_,X_INTRODUCED_168_):: defines_var(X_INTRODUCED_168_);
constraint int_eq_reif(X_INTRODUCED_62_,X_INTRODUCED_7_,X_INTRODUCED_169_):: defines_var(X_INTRODUCED_169_);
constraint int_eq_reif(X_INTRODUCED_8_,0,X_INTRODUCED_178_):: defines_var(X_INTRODUCED_178_);
constraint int_eq_reif(X_INTRODUCED_63_,X_INTRODUCED_62_,X_INTRODUCED_179_):: defines_var(X_INTRODUCED_179_);
constraint int_eq_reif(X_INTRODUCED_63_,X_INTRODUCED_8_,X_INTRODUCED_180_):: defines_var(X_INTRODUCED_180_);
constraint int_eq_reif(X_INTRODUCED_9_,0,X_INTRODUCED_189_):: defines_var(X_INTRODUCED_189_);
constraint int_eq_reif(X_INTRODUCED_64_,X_INTRODUCED_63_,X_INTRODUCED_190_):: defines_var(X_INTRODUCED_190_);
constraint int_eq_reif(X_INTRODUCED_64_,X_INTRODUCED_9_,X_INTRODUCED_191_):: defines_var(X_INTRODUCED_191_);
constraint int_eq_reif(X_INTRODUCED_10_,0,X_INTRODUCED_200_):: defines_var(X_INTRODUCED_200_);
constraint int_eq_reif(X_INTRODUCED_65_,X_INTRODUCED_64_,X_INTRODUCED_201_):: defines_var(X_INTRODUCED_201_);
constraint int_eq_reif(X_INTRODUCED_65_,X_INTRODUCED_10_,X_INTRODUCED_202_):: defines_var(X_INTRODUCED_202_);
constraint int_eq_reif(X_INTRODUCED_11_,0,X_INTRODUCED_211_):: defines_var(X_INTRODUCED_211_);
constraint int_eq_reif(X_INTRODUCED_66_,X_INTRODUCED_65_,X_INTRODUCED_212_):: defines_var(X_INTRODUCED_212_);
constraint int_eq_reif(X_INTRODUCED_66_,X_INTRODUCED_11_,X_INTRODUCED_213_):: defines_var(X_INTRODUCED_213_);
constraint int_eq_reif(X_INTRODUCED_12_,0,X_INTRODUCED_222_):: defines_var(X_INTRODUCED_222_);
constraint int_eq_reif(X_INTRODUCED_67_,X_INTRODUCED_66_,X_INTRODUCED_223_):: defines_var(X_INTRODUCED_223_);
constraint int_eq_reif(X_INTRODUCED_67_,X_INTRODUCED_12_,X_INTRODUCED_224_):: defines_var(X_INTRODUCED_224_);
constraint int_eq_reif(X_INTRODUCED_13_,0,X_INTRODUCED_233_):: defines_var(X_INTRODUCED_233_);
constraint int_eq_reif(X_INTRODUCED_68_,X_INTRODUCED_67_,X_INTRODUCED_234_):: defines_var(X_INTRODUCED_234_);
constraint int_eq_reif(X_INTRODUCED_68_,X_INTRODUCED_13_,X_INTRODUCED_235_):: defines_var(X_INTRODUCED_235_);
constraint int_eq_reif(X_INTRODUCED_14_,0,X_INTRODUCED_244_):: defines_var(X_INTRODUCED_244_);
constraint int_eq_reif(X_INTRODUCED_69_,X_INTRODUCED_68_,X_INTRODUCED_245_):: defines_var(X_INTRODUCED_245_);
constraint int_eq_reif(X_INTRODUCED_69_,X_INTRODUCED_14_,X_INTRODUCED_246_):: defines_var(X_INTRODUCED_246_);
constraint int_lin_eq([1,14,-1],[X_INTRODUCED_56_,X_INTRODUCED_0_,X_INTRODUCED_258_],-1):: domain:: defines_var(X_INTRODUCED_258_);
constraint int_lin_eq([1,14,-1],[X_INTRODUCED_57_,X_INTRODUCED_56_,X_INTRODUCED_260_],-1):: domain:: defines_var(X_INTRODUCED_260_);
constraint int_lin_eq([1,14,-1],[X_INTRODUCED_58_,X_INTRODUCED_57_,X_INTRODUCED_262_],-1):: domain:: defines_var(X_INTRODUCED_262_);
constraint int_lin_eq([1,14,-1],[X_INTRODUCED_59_,X_INTRODUCED_58_,X_INTRODUCED_264_],-1):: domain:: defines_var(X_INTRODUCED_264_);
constraint int_lin_eq([1,14,-1],[X_INTRODUCED_60_,X_INTRODUCED_59_,X_INTRODUCED_266_],-1):: domain:: defines_var(X_INTRODUCED_266_);
constraint int_lin_eq([1,14,-1],[X_INTRODUCED_61_,X_INTRODUCED_60_,X_INTRODUCED_268_],-1):: domain:: defines_var(X_INTRODUCED_268_);
constraint int_lin_eq([1,14,-1],[X_INTRODUCED_62_,X_INTRODUCED_61_,X_INTRODUCED_270_],-1):: domain:: defines_var(X_INTRODUCED_270_);
constraint int_lin_eq([1,14,-1],[X_INTRODUCED_63_,X_INTRODUCED_62_,X_INTRODUCED_272_],-1):: domain:: defines_var(X_INTRODUCED_272_);
constraint int_lin_eq([1,14,-1],[X_INTRODUCED_64_,X_INTRODUCED_63_,X_INTRODUCED_274_],-1):: domain:: defines_var(X_INTRODUCED_274_);
constraint int_lin_eq([1,14,-1],[X_INTRODUCED_65_,X_INTRODUCED_64_,X_INTRODUCED_276_],-1):: domain:: defines_var(X_INTRODUCED_276_);
constraint int_lin_eq([1,14,-1],[X_INTRODUCED_66_,X_INTRODUCED_65_,X_INTRODUCED_278_],-1):: domain:: defines_var(X_INTRODUCED_278_);
constraint int_lin_eq([1,14,-1],[X_INTRODUCED_67_,X_INTRODUCED_66_,X_INTRODUCED_280_],-1):: domain:: defines_var(X_INTRODUCED_280_);
constraint int_lin_eq([1,14,-1],[X_INTRODUCED_68_,X_INTRODUCED_67_,X_INTRODUCED_282_],-1):: domain:: defines_var(X_INTRODUCED_282_);
constraint int_lin_eq([1,14,-1],[X_INTRODUCED_69_,X_INTRODUCED_68_,X_INTRODUCED_284_],-1):: domain:: defines_var(X_INTRODUCED_284_);
solve :: seq_search([int_search(production_by_order,first_fail,indomain_median,complete),int_search(inventory_periods,first_fail,indomain_min,complete)]) minimize objective;
